; benchmark generated from python API
(set-info :status unknown)
(declare-fun S_1 () Real)
(declare-fun S_2 () Real)
(declare-fun A_2 () Real)
(declare-fun L_2 () Real)
(declare-fun L_3 () Real)
(declare-fun A_4 () Real)
(declare-fun S_4 () Real)
(declare-fun A_1 () Real)
(declare-fun L_1 () Real)
(declare-fun S_3 () Real)
(declare-fun A_0 () Real)
(declare-fun L_0 () Real)
(declare-fun S_0 () Real)
(declare-fun A_3 () Real)
(assert
 (let (($x42619 (not (<= 0.0 (+ L_1 S_0 (* (- 1.0) A_0))))))
 (let ((?x918 (* (- 1.0) A_0)))
 (let ((?x768 (* (- 1.0) L_1)))
 (let ((?x1380 (* (- 1.0) S_4)))
 (let ((?x786 (* (- 1.0) L_3)))
 (let ((?x759 (* (- 1.0) L_0)))
 (let (($x660 (= ?x768 ?x759)))
 (let (($x53478 (or $x660 (not (<= (+ ?x786 A_3 ?x1380 ?x768 A_1 L_0 ?x918) 0.0)) $x42619)))
 (let (($x46514 (<= 0.0 (+ (* (- 1.0) A_2) L_2 S_3 A_0 ?x759 L_1 (* (- 1.0) A_1)))))
 (let ((?x1404 (* 3.0 A_2)))
 (let ((?x2213 (* (- 3.0) A_1)))
 (let ((?x1403 (* (- 3.0) L_2)))
 (let ((?x1772 (* 3.0 L_1)))
 (let ((?x777 (* (- 1.0) L_2)))
 (let ((?x4317 (* (/ 1.0 3.0) L_0)))
 (let ((?x2786 (* (- (/ 2.0 3.0)) S_4)))
 (let (($x1742 (<= (+ ?x786 A_3 ?x1380) 0.0)))
 (let (($x96555 (or $x660 $x1742 (<= (+ ?x2786 (* (- (/ 4.0 3.0)) A_0) ?x4317 S_0 L_1 ?x777 A_2) 0.0) (<= (+ ?x1380 A_0 ?x759 ?x1772 ?x1403 ?x2213 ?x1404) 0.0))))
 (let ((?x789 (* (- 1.0) A_3)))
 (let ((?x1418 (* (- 1.0) S_1)))
 (let ((?x2822 (* (/ 2.0 3.0) S_4)))
 (let ((?x2280 (* (/ 1.0 3.0) A_1)))
 (let ((?x2817 (* (- (/ 4.0 3.0)) L_1)))
 (let ((?x15883 (* (- (/ 1.0 4.0)) L_0)))
 (let ((?x22626 (* (/ 5.0 4.0) A_0)))
 (let ((?x13320 (* (/ 3.0 4.0) S_4)))
 (let ((?x12690 (* (- (/ 1.0 2.0)) L_2)))
 (let ((?x18347 (* (/ 1.0 2.0) A_2)))
 (let ((?x3023 (* (/ 1.0 2.0) S_4)))
 (let (($x3784 (<= (+ ?x768 L_2) 0.0)))
 (let (($x3788 (not $x3784)))
 (let (($x3775 (<= (+ L_3 ?x768) 0.0)))
 (let (($x94646 (or $x3775 $x3788 (<= (+ ?x3023 ?x18347 ?x12690 ?x768 ?x1418 L_3 A_0 ?x789) 0.0) (<= (+ ?x13320 ?x22626 ?x15883 ?x1418 L_3 ?x768 ?x789) 0.0) (<= (+ ?x2817 ?x2280 ?x2822 ?x1418 L_3 A_0 ?x789) 0.0))))
 (let (($x46347 (not (<= 0.0 (+ S_1 L_1 (* (- 1.0) A_1))))))
 (let ((?x780 (* (- 1.0) A_2)))
 (let ((?x771 (* (- 1.0) A_1)))
 (let (($x1443 (<= (+ A_0 ?x759 ?x786 L_1 L_2 ?x771 ?x780 A_3) 0.0)))
 (let ((?x1399 (* 2.0 A_3)))
 (let ((?x1349 (* (- 3.0) A_2)))
 (let ((?x1316 (* 3.0 L_2)))
 (let ((?x1396 (* (- 2.0) L_3)))
 (let (($x94575 (or (not (<= 0.0 (+ A_0 ?x759 ?x1396 ?x1316 ?x1349 ?x1399))) (not $x1443) $x3775 $x46347)))
 (let ((?x11815 (* (/ 3.0 2.0) S_2)))
 (let ((?x8418 (* (/ 1.0 2.0) L_0)))
 (let ((?x7863 (* (/ 1.0 2.0) A_0)))
 (let (($x42909 (not (<= (+ L_2 ?x786 ?x780 A_3) 5.0))))
 (let (($x6179 (<= (+ ?x768 A_1 L_3 L_0 ?x777 ?x918 A_2 ?x789) 0.0)))
 (let (($x6128 (not $x6179)))
 (let (($x45221 (not (<= (- 5.0) (+ ?x768 A_1 L_2 ?x780)))))
 (let (($x40463 (<= (+ (* 3.0 A_0) (* (- 3.0) L_0) ?x1316 ?x1349) (- 30.0))))
 (let (($x1437 (<= (+ ?x786 ?x768 (* 2.0 L_2) A_1 (* (- 2.0) A_2) A_3) 0.0)))
 (let (($x1304 (not $x1437)))
 (let (($x95006 (or $x3775 $x3788 (<= (+ ?x771 (* 2.0 S_2) ?x1418 L_3 A_0 ?x789) 0.0))))
 (let (($x95828 (or $x3775 $x3788 (<= (+ A_2 ?x777 A_0 ?x1418 L_3 ?x768 ?x789) (- 5.0)) (<= (+ (* (- 2.0) L_1) A_1 ?x1418 L_3 A_0 ?x789) (- 10.0)) (<= (+ (* 2.0 A_0) ?x759 ?x1418 L_3 ?x768 ?x789) (- 15.0)))))
 (let (($x37491 (<= 0.0 (+ S_3 L_2 ?x780))))
 (let ((?x1765 (* 2.0 L_1)))
 (let ((?x2356 (* 2.0 S_0)))
 (let (($x3924 (<= (+ ?x918 ?x759 (* (- 3.0) S_3) ?x2356 ?x1396 ?x1765 ?x1399) 0.0)))
 (let (($x95046 (or $x660 $x3924 $x6128 (<= (+ A_1 (* (- 2.0) S_3) S_0 ?x786 ?x918 A_3) 0.0) $x37491)))
 (let (($x2771 (<= (+ (* (/ 1.0 2.0) L_1) (* (- (/ 1.0 2.0)) A_1) (* (- (/ 1.0 2.0)) S_4) S_2) 0.0)))
 (let (($x43419 (not (<= 0.0 (+ S_2 L_2 ?x780)))))
 (let ((?x1398 (* (- 2.0) A_2)))
 (let ((?x1397 (* 2.0 L_2)))
 (let ((?x1408 (* (- 1.0) S_2)))
 (let (($x93588 (or $x3775 (not (<= (+ ?x1396 ?x1399 A_0 ?x759 ?x1408 ?x1397 ?x1398) 0.0)) $x43419)))
 (let (($x93248 (or $x3784 (not (<= 0.0 (+ L_3 ?x789 S_4 ?x768 A_1 L_2 ?x780))) (not (<= 0.0 (+ A_0 ?x759 ?x777 ?x1765 (* (- 2.0) A_1) A_2))))))
 (let (($x96134 (or $x3784 (not (<= (+ ?x759 S_1 ?x1772 ?x777 (* (- 2.0) A_1) A_2) 0.0)) (<= (+ (* 2.0 A_0) ?x759 ?x1418 L_2 ?x768 ?x780) (- 10.0)))))
 (let (($x15724 (<= (+ ?x759 S_1 ?x1772 ?x777 (* (- 2.0) A_1) A_2) 0.0)))
 (let (($x93182 (or (<= (+ (* (- 2.0) L_1) A_1 ?x1418 L_2 A_0 ?x780) (- 5.0)) $x3784 $x15724)))
 (let (($x15395 (<= (+ (* (/ 1.0 4.0) S_4) (* (/ 3.0 4.0) A_0) (* (- (/ 3.0 4.0)) L_0) L_1 ?x771) 0.0)))
 (let ((?x2783 (* (/ 1.0 3.0) S_4)))
 (let ((?x2324 (* (/ 2.0 3.0) A_1)))
 (let ((?x2794 (* (- (/ 5.0 3.0)) L_1)))
 (let (($x46726 (<= 0.0 (+ (* (- 2.0) L_1) (* 2.0 A_1) L_2 L_0 ?x918 ?x780))))
 (let (($x46727 (not $x46726)))
 (let (($x40212 (not (<= (+ ?x768 A_1 L_0 ?x918) 5.0))))
 (let ((?x1405 (* (- 3.0) A_3)))
 (let ((?x1794 (* 3.0 A_1)))
 (let ((?x1798 (* (- 3.0) L_1)))
 (let ((?x1402 (* 3.0 L_3)))
 (let ((?x2630 (* 2.0 S_3)))
 (let ((?x3880 (* 2.0 L_0)))
 (let ((?x1423 (* (- 2.0) A_0)))
 (let (($x94473 (or $x3775 $x3788 (<= (+ ?x1423 ?x3880 ?x2630 ?x1402 ?x1798 ?x1794 ?x1405) 0.0) $x6179)))
 (let (($x96667 (or $x3775 $x3788 (<= (+ ?x1423 ?x3880 (* 2.0 S_1) L_3 ?x768 A_1 ?x789) 0.0) $x6179)))
 (let (($x2192 (<= (+ (* (- 2.0) L_1) (* 2.0 A_1) (* (- 1.0) S_3) L_0 ?x918) 0.0)))
 (let (($x95041 (or $x660 $x2192 $x3924 (<= (+ A_0 ?x759 (* (- 1.0) S_3) ?x786 L_1 ?x771 A_3) 0.0) $x37491)))
 (let (($x94931 (or $x3775 $x3788 (<= (+ ?x918 L_0 S_2 L_3 ?x768 A_1 ?x789) 0.0))))
 (let ((?x1414 (* (- 2.0) A_3)))
 (let ((?x1807 (* 2.0 A_1)))
 (let ((?x1741 (* (- 2.0) L_1)))
 (let ((?x1411 (* 2.0 L_3)))
 (let (($x94735 (or $x3775 $x3788 $x6179 (<= (+ S_4 ?x918 L_0 ?x1411 ?x1741 ?x1807 ?x1414) 0.0))))
 (let (($x1692 (<= (+ ?x768 A_1 ?x1408) 0.0)))
 (let (($x95138 (or $x660 $x1443 $x1692 (<= (+ ?x780 L_2 ?x1408 ?x759 S_0 ?x786 L_1 A_3) 0.0))))
 (let ((?x2837 (* (- (/ 1.0 2.0)) S_4)))
 (let ((?x2666 (* (- (/ 1.0 2.0)) A_1)))
 (let ((?x3032 (* (/ 3.0 2.0) L_1)))
 (let ((?x2417 (+ L_1 S_0 ?x918)))
 (let (($x2418 (<= ?x2417 0.0)))
 (let (($x2391 (not $x2418)))
 (let (($x2354 (not (<= (+ ?x1798 ?x1807 (* (- 1.0) S_0) L_0 L_2 ?x780) 0.0))))
 (let (($x93923 (or $x660 $x1742 $x2354 $x2391 (<= (+ ?x3032 ?x2666 ?x2837 S_0 ?x777 ?x918 A_2) 0.0))))
 (let (($x92508 (or $x1443 (<= (+ ?x786 A_3 ?x768 A_1 (* (- 1.0) S_3) L_2 ?x780) 0.0) $x3784)))
 (let (($x5888 (<= (+ L_3 L_1 (* (- 2.0) L_2) ?x771 (* 2.0 A_2) ?x789) 0.0)))
 (let (($x2386 (<= (+ ?x777 L_3) 0.0)))
 (let (($x95291 (or $x660 (<= (+ ?x1423 L_0 S_0 ?x1411 L_1 ?x1403 ?x1404 ?x1414) 0.0) $x2386 $x5888)))
 (let ((?x1413 (* 2.0 A_2)))
 (let ((?x1412 (* (- 2.0) L_2)))
 (let (($x6994 (<= (+ ?x1765 ?x771 S_0 L_3 ?x1412 ?x918 ?x1413 ?x789) 0.0)))
 (let (($x17860 (<= (+ ?x3023 (* (/ 3.0 2.0) A_0) (* (- (/ 1.0 2.0)) L_0) ?x1418 L_2 ?x768 ?x780) 0.0)))
 (let (($x1809 (<= (+ ?x1798 ?x1807 ?x1418 L_0 L_2 ?x780) 0.0)))
 (let ((?x1417 (* 2.0 A_0)))
 (let ((?x3113 (* 2.0 S_4)))
 (let (($x93419 (or $x1809 $x3784 (<= (+ ?x1411 ?x1414 ?x3113 ?x1417 ?x759 ?x1418 L_2 ?x768 ?x780) 0.0))))
 (let (($x47296 (<= (+ ?x1380 A_2 ?x777) (- 5.0))))
 (let (($x48640 (or $x1742 (<= (+ (* (- (/ 3.0 2.0)) L_1) (* (/ 3.0 2.0) A_1) ?x2837 L_0 ?x918) 0.0) (<= (+ (* (- (/ 1.0 3.0)) S_4) (* (/ 1.0 3.0) A_0) (* (- (/ 1.0 3.0)) L_0)) (- 5.0)) $x47296)))
 (let (($x50904 (or $x1443 (<= (+ ?x786 A_3 ?x1741 A_1 ?x1418 ?x1397 A_0 ?x1398) 0.0) $x3784)))
 (let ((?x10143 (* (/ 2.0 3.0) S_3)))
 (let ((?x4419 (* (/ 2.0 3.0) L_0)))
 (let ((?x4325 (* (- (/ 2.0 3.0)) A_0)))
 (let (($x94065 (or $x1742 (<= (+ (* (- (/ 1.0 3.0)) S_4) ?x4325 ?x4419 S_1) 0.0) (<= (+ ?x1380 A_2 ?x777 ?x918 L_0 S_1) 0.0))))
 (let (($x93897 (or (<= (+ ?x1417 ?x759 ?x1418 ?x1396 ?x768 ?x1316 ?x1349 ?x1399) 0.0) $x1809 $x3784)))
 (let (($x3044 (<= (+ (* (- (/ 1.0 2.0)) L_1) (* (/ 1.0 2.0) A_1) ?x2837 L_2 ?x786 ?x780 A_3) 0.0)))
 (let (($x1356 (<= (+ ?x1380 A_0 ?x759 (* (- 3.0) L_3) ?x1316 ?x1349 (* 3.0 A_3)) 0.0)))
 (let (($x94659 (or $x2418 (not (<= 0.0 (+ ?x18347 ?x12690 ?x7863 (* (- (/ 1.0 2.0)) L_0) L_1 ?x771))))))
 (let (($x47445 (or $x1742 $x40212 (<= (+ (* (- (/ 1.0 2.0)) L_1) (* (/ 1.0 2.0) A_1) ?x2837) (- 5.0)) $x47296)))
 (let (($x3913 (not (<= (+ (* (- 4.0) A_0) ?x3880 ?x2356 L_3 ?x768 ?x1794 ?x789) 0.0))))
 (let (($x3879 (<= (+ A_0 (* (- 2.0) L_0) (* (- 3.0) S_2) S_0 ?x786 L_1 A_3) 0.0)))
 (let (($x5880 (<= (+ ?x1417 (* (- 2.0) L_0) (* (- 2.0) S_2) ?x786 L_1 ?x771 A_3) 0.0)))
 (let ((?x1390 (* 4.0 A_2)))
 (let ((?x1271 (* (- 4.0) L_2)))
 (let (($x1393 (<= (+ S_4 ?x918 L_0 (* 4.0 L_3) ?x1271 ?x1390 (* (- 4.0) A_3)) 0.0)))
 (let ((?x1317 (* 3.0 A_3)))
 (let ((?x1379 (* (- 3.0) L_3)))
 (let ((?x3889 (* (- 2.0) L_0)))
 (let ((?x3049 (* (- 2.0) S_4)))
 (let (($x3927 (<= (+ ?x1380 ?x918 S_0 ?x786 L_1 A_3) 0.0)))
 (let (($x10670 (<= (+ (* (/ 4.0 3.0) A_0) (* (- (/ 1.0 3.0)) L_0) ?x10143 ?x1418 L_2 ?x768 ?x780) 0.0)))
 (let (($x8541 (<= (+ ?x7863 (* (- (/ 1.0 2.0)) S_3) (* (- (/ 1.0 2.0)) L_0)) (- 5.0))))
 (let (($x94495 (or (<= (+ L_3 ?x789 S_4 ?x1741 A_1 ?x1418 L_2 A_0 ?x780) 0.0) $x3784 (<= (+ ?x1411 ?x1414 ?x3113 ?x1417 ?x3889 ?x1765 (* (- 2.0) A_1)) 0.0))))
 (let ((?x1447 (* (- 4.0) A_2)))
 (let ((?x1446 (* 4.0 L_2)))
 (let (($x13895 (<= (+ S_4 ?x918 L_0 (* (- 4.0) L_1) ?x1446 (* 4.0 A_1) ?x1447) 0.0)))
 (let (($x18318 (<= (+ ?x3023 (* (- (/ 1.0 2.0)) A_2) (* (/ 1.0 2.0) L_2) A_0 ?x1408 ?x759) 0.0)))
 (let (($x93795 (or (<= (+ A_0 ?x759 ?x1408 ?x786 L_2 ?x780 A_3) 0.0) $x1692 $x3784)))
 (let (($x46403 (or $x2192 (<= (+ ?x3023 ?x7863 (* (- (/ 1.0 2.0)) L_0) (* (- 1.0) S_3)) 0.0) $x37491)))
 (let (($x16003 (<= (+ S_4 (* 3.0 A_0) (* (- 3.0) L_0) (* (- 4.0) S_2)) 0.0)))
 (let (($x8434 (<= (+ ?x7863 (* (- (/ 1.0 2.0)) S_3) (* (- (/ 1.0 2.0)) L_0) L_1 ?x777 ?x771 A_2) 0.0)))
 (let (($x52568 (or $x660 (<= (+ L_1 (* (- 1.0) S_3) S_0 ?x777 ?x918 A_2) 0.0) $x8434)))
 (let (($x46735 (or (<= (+ (* (- (/ 1.0 2.0)) A_0) (* (- (/ 1.0 2.0)) S_3) ?x8418 S_1) 0.0) $x37491)))
 (let (($x46236 (or $x2192 (<= (+ ?x1411 ?x1414 ?x3113 A_0 (* (- 1.0) S_3) ?x759) 0.0) $x37491)))
 (let (($x2141 (not $x2192)))
 (let (($x46233 (or $x2141 (<= (+ L_3 ?x789 S_4 ?x768 A_1 (* (- 1.0) S_3)) 0.0) $x37491)))
 (let (($x8454 (<= (+ ?x786 A_3 ?x7863 (* (- (/ 1.0 2.0)) S_3) (* (- (/ 1.0 2.0)) L_0) L_2 ?x780) 0.0)))
 (let (($x93263 (or $x660 $x1692 (<= (+ ?x759 (* (- 2.0) S_2) S_0 ?x777 L_1 A_2) 0.0) (<= (+ A_0 ?x759 ?x1408 ?x777 L_1 ?x771 A_2) 0.0))))
 (let (($x93967 (or (<= (+ ?x1798 A_1 S_3 (* (- 2.0) S_1) ?x1397 ?x1417 ?x1398) 0.0) $x3784 (<= (+ ?x1417 ?x3889 S_3 ?x1772 ?x2213) 0.0))))
 (let (($x42592 (or (<= (+ (* (- (/ 2.0 3.0)) L_1) ?x2324 ?x2783 (* (- 1.0) S_3)) 0.0) $x2141 $x37491)))
 (let (($x45003 (or $x1692 (<= (+ (* 3.0 A_0) (* (- 3.0) L_0) (* (- 3.0) S_2)) (- 15.0)))))
 (let (($x41 (>= A_1 A_0)))
 (let (($x42 (>= A_2 A_1)))
 (let (($x43 (>= A_3 A_2)))
 (let (($x44 (>= A_4 A_3)))
 (and (<= ?x768 ?x759) $x44 $x43 $x42 $x41 (<= ?x777 ?x768) (<= ?x786 ?x777) (or (= ?x777 ?x768) (<= (+ ?x768 S_2 ?x1418 L_2 A_0 ?x780) 0.0)) (or $x3784 $x43419) $x45003 $x42592 (or $x2386 (<= (+ L_1 ?x771 S_3 ?x1411 ?x1412 ?x1413 ?x1414) 0.0)) $x93967 (or $x1692 (<= (+ ?x1417 ?x3889 S_3 (* (- 3.0) S_2)) 0.0)) (or $x3775 $x3788 (<= (+ A_0 S_3 ?x1418 L_3 ?x768 ?x789) 0.0)) $x93263 (or (<= (+ ?x918 L_0 S_3 ?x1402 ?x1403 ?x1404 ?x1405) 0.0) $x2386) (or (<= (+ ?x918 L_0 S_2 ?x1411 ?x1412 ?x1413 ?x1414) 0.0) $x2386) (or (<= (+ L_3 ?x777 A_2 ?x789) (- 5.0)) $x2386) (or $x2192 $x3784 $x8454) $x46233 $x46236 $x46735 $x52568 (or $x1692 $x16003) $x46403 (or $x1692 (<= (+ ?x780 L_2 S_3 A_0 ?x1408 ?x759) 0.0)) $x93795 (or $x1692 $x18318) (or $x3784 $x13895) $x94495 (or $x1692 (<= (+ ?x1411 ?x1414 ?x3113 ?x1417 ?x3889 (* (- 2.0) S_2)) 0.0)) (or $x37491 (<= (+ ?x768 A_1 (* (- 1.0) S_3)) (- 5.0)) $x8541) (or $x1809 $x3784 $x10670) (or $x660 $x3927 (<= (+ ?x3049 ?x1417 ?x3889 ?x1379 ?x1772 ?x2213 ?x1317) 0.0)) (or $x660 $x1443 $x3927) (or $x3784 (not $x5888) $x6128) (or $x1437 $x3784) (or (<= (+ ?x918 L_0 S_1 L_3 ?x777 A_2 ?x789) 0.0) $x2386) (or $x1393 $x2386) (or $x660 $x5880 (<= (+ ?x918 ?x1408 S_0 A_1) 0.0)) (or $x660 $x1692 $x3879 $x3913) (or $x3775 $x3788 (not (<= 0.0 (+ S_3 L_3 ?x789)))) $x47445 (or $x3784 $x40463 $x45221) (or $x660 $x2354 $x2391 $x42619) (or $x3784 (<= (+ ?x918 L_0 S_1 L_2 ?x768 A_1 ?x780) 0.0)) (or $x3784 (<= (+ ?x768 A_1 L_2 ?x780) (- 5.0))) (or $x3784 $x46347 $x46727) (or $x3775 $x42909 (<= (+ ?x768 A_1 L_2 ?x780) (- 5.0))) $x94659 (or $x1356 $x3044 $x3784) (or $x660 $x1443 $x42619) $x93897 $x94065 (or $x1742 (<= (+ ?x2786 (* (- (/ 1.0 3.0)) A_0) ?x4317 S_2) 0.0)) (or $x3784 (<= (+ ?x4325 ?x4419 ?x10143 ?x1397 ?x1741 ?x1807 ?x1398) 0.0)) (or $x2386 (<= (+ L_1 ?x771 S_4 ?x1402 ?x1403 ?x1404 ?x1405) 0.0)) $x50904 $x48640 $x93419 (or $x1809 $x3784 $x17860) (or $x2386 (<= (+ L_1 ?x771 S_2 L_3 ?x777 A_2 ?x789) 0.0)) (or $x660 $x1443 $x2386 $x6994) (or $x3784 (<= (+ ?x918 L_0 S_2 ?x1397 ?x1741 ?x1807 ?x1398) 0.0)) (or $x660 $x2386 $x5888 $x6994) (or $x3784 (<= (+ L_3 ?x789 S_4 ?x768 L_2 A_1 ?x780) 0.0)) $x95291 $x92508 $x93923 $x95138 $x94735 (or $x3775 $x3788 $x6179 (<= (+ ?x768 A_1 L_3 ?x789) (- 10.0))) $x94931 (or $x660 $x42619 $x46347) $x95041 $x96667 $x94473 (or $x3784 $x40212 $x46727) (or (<= (+ ?x2794 ?x2324 ?x2783 ?x1418 L_2 A_0 ?x780) 0.0) $x3784 $x15395) $x93182 $x96134 $x93248 $x93588 (or $x1742 $x2771) $x95046 $x95828 (or $x1304 $x3775 $x43419) (or $x3775 $x3788 (not (<= 0.0 (+ ?x3023 ?x18347 ?x12690 L_3 ?x789)))) $x95006 (or $x1304 $x3775 $x40463 $x45221) (or $x3775 $x6128 $x42909 (not (<= (+ ?x771 A_2) 5.0))) (or $x3775 $x3788 (<= (+ ?x7863 ?x8418 ?x11815 ?x1418 L_3 ?x768 ?x789) 0.0)) $x94575 $x94646 $x96555 (or $x660 $x42619 (not $x46514)) (or $x660 $x40212 $x42619) $x53478 (<= (+ ?x1418 S_0) 0.0) (<= (+ L_3 ?x789 S_3) 0.0) (<= (+ (* (- 1.0) S_3) S_2) 0.0) (<= (+ S_0 L_0 ?x918) 0.0) (<= (+ ?x1380 S_3) 0.0) (<= (+ L_1 ?x771 S_1) 0.0) (<= (+ S_4 (* (- 1.0) A_4) L_3) 0.0) (<= (+ S_2 L_2 ?x780) 0.0) (<= (+ ?x1408 S_1) 0.0))))))))))))))))))))))))))))))))))))))))))))))))))))))))))))))))))))))))))))))))))))))))))))))))))))))))))))))))))))))))))))))))))))))))))))))))))))))))))))))))))))))
(check-sat)
